n_res = 4;
rcap = [16, 18, 36, 33];
rtype = [1, 1, 2, 2];
n_tasks = 16;
modes = [ {1}, {2}, {3}, {4}, {5}, {6}, {7}, {8}, {9}, {10}, {11}, {12}, {13}, {14}, {15}, {16} ];
succ = [ {5, 7, 9}, {4, 8, 10}, {4, 8, 15}, {9}, {6, 16}, {10, 11}, {10, 12, 13}, {9, 12}, {13, 14}, {14, 15}, {12, 15}, {14}, {16}, {}, {}, {} ];
n_opt = 16;
dur = [7, 9, 4, 5, 4, 6, 9, 3, 6, 9, 3, 7, 8, 7, 1, 6];
rreq = [|  3,  0, 10,  7,  7,  9,  0,  0,  6,  0,  4,  0,  0,  3,  0,  0
        |  0,  5,  0,  0,  0,  0, 10,  8,  0,  7,  0,  4,  4,  0, 10,  3
        |  0,  8,  0,  9,  0,  0,  0,  4,  4,  4,  0,  2,  1,  0,  4,  0
        |  6,  0,  4,  0,  2,  6,  2,  0,  0,  0,  9,  0,  0,  2,  0,  2 |];
